lkh/instances/vregion_valpo.tsp
NAME: vregion_valpo
TYPE: TSP
COMMENT: Simulated region vregion_valpo
DIMENSION: 12
EDGE_WEIGHT_TYPE: EUC_2D
NODE_COORD_SECTION
1 50 50
2 30 65
3 60 80
4 75 60
5 85 45
6 40 30
7 25 40
8 70 50
9 90 25
10 55 20
11 45 65
12 60 35
EOF
