lkh/tours/vregion_valpo.tour
vregion_valpo, Cost: 113_313
The tours traveled by the 3 salesmen are:
1 10 6 7 1 (#3)  Cost: 93
1 2 11 3 4 1 (#4)  Cost: 113
1 8 5 9 12 1 (#4)  Cost: 107
